% seed = 6615354

mint = 54;
% maxt = 221;

nActs = 42;
dur = [0,9,7,1,6,5,9,6,1,2,4,7,6,5,5,6,6,7,9,7,10,9,4,5,9,6,1,4,1,3,1,8,10,9,4,3,8,1,9,1,7,0];

nSkills = 4;
sreq = [| 0,0,0,0,
	| 6,2,0,6,
	| 7,0,6,3,
	| 0,7,5,2,
	| 0,1,2,6,
	| 5,0,3,5,
	| 4,7,2,0,
	| 4,3,0,3,
	| 0,4,5,6,
	| 0,5,7,4,
	| 0,3,1,3,
	| 2,0,1,5,
	| 3,0,1,1,
	| 0,3,4,2,
	| 6,4,5,0,
	| 4,6,0,4,
	| 6,3,0,5,
	| 5,5,0,1,
	| 3,0,7,3,
	| 3,0,2,3,
	| 4,2,0,4,
	| 3,1,0,5,
	| 0,7,5,4,
	| 0,5,6,2,
	| 2,3,2,0,
	| 3,3,0,5,
	| 3,4,0,5,
	| 0,7,4,4,
	| 4,4,0,5,
	| 3,2,0,7,
	| 3,2,7,0,
	| 4,0,6,4,
	| 3,2,3,0,
	| 0,5,6,4,
	| 6,4,0,5,
	| 2,5,0,3,
	| 2,3,6,0,
	| 5,0,6,4,
	| 3,7,5,0,
	| 4,4,3,0,
	| 0,6,4,2,
	| 0,0,0,0, |];

nResources = 30;
mastery = [| false,true,false,false,
	| false,true,false,true,
	| false,true,true,true,
	| false,false,true,true,
	| false,false,true,false,
	| false,true,false,false,
	| true,true,false,false,
	| false,false,true,false,
	| false,true,true,true,
	| false,false,false,true,
	| true,true,true,false,
	| false,false,false,true,
	| true,false,true,false,
	| false,false,true,false,
	| false,true,false,false,
	| true,true,false,false,
	| false,true,true,true,
	| true,false,false,true,
	| false,false,true,true,
	| true,false,true,false,
	| false,false,false,true,
	| true,true,true,false,
	| false,true,false,true,
	| false,true,true,false,
	| false,false,false,true,
	| false,true,false,true,
	| false,false,false,true,
	| true,false,true,false,
	| false,false,true,false,
	| true,false,true,false, |];

nPrecs = 61;
pred = [1,1,1,2,2,2,3,3,3,4,4,4,5,5,6,7,8,8,9,10,10,10,11,11,12,13,13,14,14,15,16,17,18,19,20,20,21,21,22,23,24,25,26,26,27,28,29,29,30,31,31,32,33,34,35,36,37,38,39,40,41];
succ = [2,3,4,17,5,14,21,22,30,33,10,12,6,8,7,9,11,20,18,27,13,23,26,28,16,25,19,36,15,33,38,31,19,29,37,40,35,24,37,39,27,36,38,32,41,30,41,30,40,37,39,39,34,35,36,40,38,41,42,42,42];

nUnrels = 571;
unpred = [2,2,2,2,2,2,2,2,2,2,2,2,3,3,3,3,3,3,3,3,3,3,3,3,3,3,3,3,3,3,3,3,3,3,3,3,3,3,3,4,4,4,4,4,4,4,4,4,4,4,4,4,4,4,4,4,4,4,5,5,5,5,5,5,5,5,5,5,5,5,5,5,5,5,5,5,6,6,6,6,6,6,6,6,6,6,6,6,6,6,6,6,6,6,6,6,6,6,6,6,6,6,6,7,7,7,7,7,7,7,7,7,7,7,7,7,7,7,7,7,7,7,7,7,7,7,7,7,7,7,8,8,8,8,8,8,8,8,8,8,8,8,8,8,8,8,8,8,8,8,8,8,9,9,9,9,9,9,9,9,9,9,9,9,9,9,9,9,9,9,9,9,9,9,9,9,9,9,10,10,10,10,10,10,10,10,10,10,10,10,10,10,10,10,10,10,10,10,11,11,11,11,11,11,11,11,11,11,11,11,11,11,11,11,11,11,11,11,11,11,12,12,12,12,12,12,12,12,12,12,12,12,12,12,12,12,12,12,12,12,12,12,12,12,12,12,13,13,13,13,13,13,13,13,13,13,13,13,13,13,13,13,13,13,13,13,13,14,14,14,14,14,14,14,14,14,14,14,14,14,14,14,14,14,14,14,14,14,15,15,15,15,15,15,15,15,15,15,15,15,15,15,15,15,15,15,15,15,15,16,16,16,16,16,16,16,16,16,16,16,16,16,16,16,16,16,16,16,16,16,16,16,17,17,17,17,17,17,17,17,17,17,17,17,17,17,17,17,17,17,17,18,18,18,18,18,18,18,18,18,18,18,18,18,18,18,18,18,18,19,19,19,19,19,19,19,19,19,19,19,19,19,19,19,19,19,19,20,20,20,20,20,20,20,20,20,20,20,20,20,20,20,20,20,21,21,21,21,21,21,21,21,21,21,21,21,21,21,22,22,22,22,22,22,22,22,22,22,22,22,22,22,22,22,23,23,23,23,23,23,23,23,23,23,23,23,23,23,23,23,23,24,24,24,24,24,24,24,24,24,24,24,24,24,24,24,25,25,25,25,25,25,25,25,25,25,25,25,25,25,26,26,26,26,26,26,26,26,26,26,26,27,27,27,27,27,27,27,27,27,27,27,27,27,28,28,28,28,28,28,28,28,28,28,28,29,29,29,29,29,29,29,29,29,30,30,30,30,30,30,30,30,30,30,31,31,31,31,31,31,32,32,32,32,32,32,32,32,33,33,33,33,34,34,34,34,35,35,35,35,36,36,36,36,37,37,38,38,39,39,40];
unsucc = [3,4,10,12,13,16,21,22,23,24,25,27,4,5,6,7,8,9,10,11,12,13,14,15,16,17,18,19,20,23,25,26,28,29,31,32,33,34,39,5,6,7,8,9,11,14,15,17,18,20,21,22,24,26,28,31,32,37,10,12,13,14,15,16,17,21,22,23,24,25,27,31,33,34,35,36,8,10,11,12,13,14,15,16,17,20,21,22,23,24,25,26,27,28,31,32,33,34,35,36,37,38,39,8,10,11,12,13,14,15,16,17,20,21,22,23,24,25,26,27,28,31,32,33,34,35,36,37,38,39,9,10,12,13,14,15,16,17,18,19,21,22,23,24,25,27,29,31,33,34,35,36,10,11,12,13,14,15,16,17,20,21,22,23,24,25,26,27,28,31,32,33,34,35,36,37,38,39,11,12,14,15,16,17,18,20,21,22,24,26,28,31,32,33,34,35,37,38,12,13,14,15,16,17,18,19,20,21,22,23,24,25,27,29,31,33,34,35,36,37,13,14,15,17,18,19,20,21,22,23,24,25,26,27,28,29,30,31,32,33,34,35,36,37,39,40,14,15,16,17,18,20,21,22,23,24,26,27,28,31,32,33,34,35,37,38,39,16,17,18,19,20,21,22,23,24,25,26,27,28,29,30,31,32,37,38,39,41,16,17,18,19,20,21,22,23,24,25,26,27,28,29,30,31,32,37,38,39,41,17,18,19,20,21,22,23,24,25,26,27,28,29,30,31,32,33,34,35,36,37,39,40,18,19,20,21,22,23,24,25,26,27,28,29,30,32,33,34,35,36,40,20,21,22,23,24,25,26,27,28,31,32,33,34,35,36,37,38,39,20,21,22,23,24,25,26,27,28,31,32,33,34,35,36,37,38,39,21,22,23,24,25,26,27,28,29,30,31,32,33,34,35,36,39,22,23,25,26,28,29,30,31,32,33,34,37,38,39,23,24,25,26,27,28,29,30,31,32,33,34,35,36,39,40,24,25,26,27,28,29,30,31,32,33,34,35,36,37,38,40,41,25,26,28,29,30,31,32,33,34,35,36,37,38,39,40,26,27,28,29,30,31,32,33,34,35,37,38,39,41,27,28,29,30,31,33,34,35,36,37,40,28,29,30,31,32,33,34,35,36,37,38,39,40,29,31,32,33,34,35,36,37,38,39,41,31,32,33,34,35,36,37,38,39,31,32,33,34,35,36,37,38,39,41,32,33,34,35,36,40,33,34,35,36,37,38,40,41,37,38,39,41,37,38,39,41,37,38,39,41,37,38,39,41,39,40,39,40,40,41,41];

USEFUL_RES = [{},
	{1,2,3,4,6,7,9,10,11,12,13,15,16,17,18,19,20,21,22,23,24,25,26,27,28,30},
	{2,3,4,5,7,8,9,10,11,12,13,14,16,17,18,19,20,21,22,23,24,25,26,27,28,29,30},
	{1,2,3,4,5,6,7,8,9,10,11,12,13,14,15,16,17,18,19,20,21,22,23,24,25,26,27,28,29,30},
	{1,2,3,4,5,6,7,8,9,10,11,12,13,14,15,16,17,18,19,20,21,22,23,24,25,26,27,28,29,30},
	{2,3,4,5,7,8,9,10,11,12,13,14,16,17,18,19,20,21,22,23,24,25,26,27,28,29,30},
	{1,2,3,4,5,6,7,8,9,11,13,14,15,16,17,18,19,20,22,23,24,26,28,29,30},
	{1,2,3,4,6,7,9,10,11,12,13,15,16,17,18,19,20,21,22,23,24,25,26,27,28,30},
	{1,2,3,4,5,6,7,8,9,10,11,12,13,14,15,16,17,18,19,20,21,22,23,24,25,26,27,28,29,30},
	{1,2,3,4,5,6,7,8,9,10,11,12,13,14,15,16,17,18,19,20,21,22,23,24,25,26,27,28,29,30},
	{1,2,3,4,5,6,7,8,9,10,11,12,13,14,15,16,17,18,19,20,21,22,23,24,25,26,27,28,29,30},
	{2,3,4,5,7,8,9,10,11,12,13,14,16,17,18,19,20,21,22,23,24,25,26,27,28,29,30},
	{2,3,4,5,7,8,9,10,11,12,13,14,16,17,18,19,20,21,22,23,24,25,26,27,28,29,30},
	{1,2,3,4,5,6,7,8,9,10,11,12,13,14,15,16,17,18,19,20,21,22,23,24,25,26,27,28,29,30},
	{1,2,3,4,5,6,7,8,9,11,13,14,15,16,17,18,19,20,22,23,24,26,28,29,30},
	{1,2,3,4,6,7,9,10,11,12,13,15,16,17,18,19,20,21,22,23,24,25,26,27,28,30},
	{1,2,3,4,6,7,9,10,11,12,13,15,16,17,18,19,20,21,22,23,24,25,26,27,28,30},
	{1,2,3,4,6,7,9,10,11,12,13,15,16,17,18,19,20,21,22,23,24,25,26,27,28,30},
	{2,3,4,5,7,8,9,10,11,12,13,14,16,17,18,19,20,21,22,23,24,25,26,27,28,29,30},
	{2,3,4,5,7,8,9,10,11,12,13,14,16,17,18,19,20,21,22,23,24,25,26,27,28,29,30},
	{1,2,3,4,6,7,9,10,11,12,13,15,16,17,18,19,20,21,22,23,24,25,26,27,28,30},
	{1,2,3,4,6,7,9,10,11,12,13,15,16,17,18,19,20,21,22,23,24,25,26,27,28,30},
	{1,2,3,4,5,6,7,8,9,10,11,12,13,14,15,16,17,18,19,20,21,22,23,24,25,26,27,28,29,30},
	{1,2,3,4,5,6,7,8,9,10,11,12,13,14,15,16,17,18,19,20,21,22,23,24,25,26,27,28,29,30},
	{1,2,3,4,5,6,7,8,9,11,13,14,15,16,17,18,19,20,22,23,24,26,28,29,30},
	{1,2,3,4,6,7,9,10,11,12,13,15,16,17,18,19,20,21,22,23,24,25,26,27,28,30},
	{1,2,3,4,6,7,9,10,11,12,13,15,16,17,18,19,20,21,22,23,24,25,26,27,28,30},
	{1,2,3,4,5,6,7,8,9,10,11,12,13,14,15,16,17,18,19,20,21,22,23,24,25,26,27,28,29,30},
	{1,2,3,4,6,7,9,10,11,12,13,15,16,17,18,19,20,21,22,23,24,25,26,27,28,30},
	{1,2,3,4,6,7,9,10,11,12,13,15,16,17,18,19,20,21,22,23,24,25,26,27,28,30},
	{1,2,3,4,5,6,7,8,9,11,13,14,15,16,17,18,19,20,22,23,24,26,28,29,30},
	{2,3,4,5,7,8,9,10,11,12,13,14,16,17,18,19,20,21,22,23,24,25,26,27,28,29,30},
	{1,2,3,4,5,6,7,8,9,11,13,14,15,16,17,18,19,20,22,23,24,26,28,29,30},
	{1,2,3,4,5,6,7,8,9,10,11,12,13,14,15,16,17,18,19,20,21,22,23,24,25,26,27,28,29,30},
	{1,2,3,4,6,7,9,10,11,12,13,15,16,17,18,19,20,21,22,23,24,25,26,27,28,30},
	{1,2,3,4,6,7,9,10,11,12,13,15,16,17,18,19,20,21,22,23,24,25,26,27,28,30},
	{1,2,3,4,5,6,7,8,9,11,13,14,15,16,17,18,19,20,22,23,24,26,28,29,30},
	{2,3,4,5,7,8,9,10,11,12,13,14,16,17,18,19,20,21,22,23,24,25,26,27,28,29,30},
	{1,2,3,4,5,6,7,8,9,11,13,14,15,16,17,18,19,20,22,23,24,26,28,29,30},
	{1,2,3,4,5,6,7,8,9,11,13,14,15,16,17,18,19,20,22,23,24,26,28,29,30},
	{1,2,3,4,5,6,7,8,9,10,11,12,13,14,15,16,17,18,19,20,21,22,23,24,25,26,27,28,29,30},
	{}];

POTENTIAL_ACT = [{2,4,5,7,8,9,10,11,14,15,16,17,18,21,22,23,24,25,26,27,28,29,30,31,33,34,35,36,37,39,40,41},
	{2,3,4,5,6,7,8,9,10,11,12,13,14,15,16,17,18,19,20,21,22,23,24,25,26,27,28,29,30,31,32,33,34,35,36,37,38,39,40,41},
	{2,3,4,5,6,7,8,9,10,11,12,13,14,15,16,17,18,19,20,21,22,23,24,25,26,27,28,29,30,31,32,33,34,35,36,37,38,39,40,41},
	{2,3,4,5,6,7,8,9,10,11,12,13,14,15,16,17,18,19,20,21,22,23,24,25,26,27,28,29,30,31,32,33,34,35,36,37,38,39,40,41},
	{3,4,5,6,7,9,10,11,12,13,14,15,19,20,23,24,25,28,31,32,33,34,37,38,39,40,41},
	{2,4,5,7,8,9,10,11,14,15,16,17,18,21,22,23,24,25,26,27,28,29,30,31,33,34,35,36,37,39,40,41},
	{2,3,4,5,6,7,8,9,10,11,12,13,14,15,16,17,18,19,20,21,22,23,24,25,26,27,28,29,30,31,32,33,34,35,36,37,38,39,40,41},
	{3,4,5,6,7,9,10,11,12,13,14,15,19,20,23,24,25,28,31,32,33,34,37,38,39,40,41},
	{2,3,4,5,6,7,8,9,10,11,12,13,14,15,16,17,18,19,20,21,22,23,24,25,26,27,28,29,30,31,32,33,34,35,36,37,38,39,40,41},
	{2,3,4,5,6,8,9,10,11,12,13,14,16,17,18,19,20,21,22,23,24,26,27,28,29,30,32,34,35,36,38,41},
	{2,3,4,5,6,7,8,9,10,11,12,13,14,15,16,17,18,19,20,21,22,23,24,25,26,27,28,29,30,31,32,33,34,35,36,37,38,39,40,41},
	{2,3,4,5,6,8,9,10,11,12,13,14,16,17,18,19,20,21,22,23,24,26,27,28,29,30,32,34,35,36,38,41},
	{2,3,4,5,6,7,8,9,10,11,12,13,14,15,16,17,18,19,20,21,22,23,24,25,26,27,28,29,30,31,32,33,34,35,36,37,38,39,40,41},
	{3,4,5,6,7,9,10,11,12,13,14,15,19,20,23,24,25,28,31,32,33,34,37,38,39,40,41},
	{2,4,5,7,8,9,10,11,14,15,16,17,18,21,22,23,24,25,26,27,28,29,30,31,33,34,35,36,37,39,40,41},
	{2,3,4,5,6,7,8,9,10,11,12,13,14,15,16,17,18,19,20,21,22,23,24,25,26,27,28,29,30,31,32,33,34,35,36,37,38,39,40,41},
	{2,3,4,5,6,7,8,9,10,11,12,13,14,15,16,17,18,19,20,21,22,23,24,25,26,27,28,29,30,31,32,33,34,35,36,37,38,39,40,41},
	{2,3,4,5,6,7,8,9,10,11,12,13,14,15,16,17,18,19,20,21,22,23,24,25,26,27,28,29,30,31,32,33,34,35,36,37,38,39,40,41},
	{2,3,4,5,6,7,8,9,10,11,12,13,14,15,16,17,18,19,20,21,22,23,24,25,26,27,28,29,30,31,32,33,34,35,36,37,38,39,40,41},
	{2,3,4,5,6,7,8,9,10,11,12,13,14,15,16,17,18,19,20,21,22,23,24,25,26,27,28,29,30,31,32,33,34,35,36,37,38,39,40,41},
	{2,3,4,5,6,8,9,10,11,12,13,14,16,17,18,19,20,21,22,23,24,26,27,28,29,30,32,34,35,36,38,41},
	{2,3,4,5,6,7,8,9,10,11,12,13,14,15,16,17,18,19,20,21,22,23,24,25,26,27,28,29,30,31,32,33,34,35,36,37,38,39,40,41},
	{2,3,4,5,6,7,8,9,10,11,12,13,14,15,16,17,18,19,20,21,22,23,24,25,26,27,28,29,30,31,32,33,34,35,36,37,38,39,40,41},
	{2,3,4,5,6,7,8,9,10,11,12,13,14,15,16,17,18,19,20,21,22,23,24,25,26,27,28,29,30,31,32,33,34,35,36,37,38,39,40,41},
	{2,3,4,5,6,8,9,10,11,12,13,14,16,17,18,19,20,21,22,23,24,26,27,28,29,30,32,34,35,36,38,41},
	{2,3,4,5,6,7,8,9,10,11,12,13,14,15,16,17,18,19,20,21,22,23,24,25,26,27,28,29,30,31,32,33,34,35,36,37,38,39,40,41},
	{2,3,4,5,6,8,9,10,11,12,13,14,16,17,18,19,20,21,22,23,24,26,27,28,29,30,32,34,35,36,38,41},
	{2,3,4,5,6,7,8,9,10,11,12,13,14,15,16,17,18,19,20,21,22,23,24,25,26,27,28,29,30,31,32,33,34,35,36,37,38,39,40,41},
	{3,4,5,6,7,9,10,11,12,13,14,15,19,20,23,24,25,28,31,32,33,34,37,38,39,40,41},
	{2,3,4,5,6,7,8,9,10,11,12,13,14,15,16,17,18,19,20,21,22,23,24,25,26,27,28,29,30,31,32,33,34,35,36,37,38,39,40,41}];
